p cnf 25 38
-15 3 0 
-4 14 0 
-9 8 0 
2 6 0 
-12 1 0 
-16 2 7 0 
-8 9 0 
-17 4 0 
-19 4 0 
-2 21 0 
-10 7 0 
-18 2 0 
-2 16 0 
-1 13 0 
-2 18 0 
-23 1 0 
-13 1 0 
-24 1 0 
-14 4 7 0 
-7 25 0 
-8 20 0 
-21 2 0 
-4 17 0 
-7 16 0 
-11 4 0 
-20 8 0 
-1 12 0 
-7 14 0 
-1 23 0 
-5 22 0 
-22 5 0 
-4 19 0 
-3 15 0 
-4 11 0 
-7 10 0 
-4 25 0 
-25 4 7 0 
-1 24 0 
